p cnf 965 2478
51 -2 -698 0
-51 2 0
-51 698 0
52 -51 -699 0
-52 51 0
-52 699 0
53 -700 -4 0
-53 700 0
-53 4 0
54 -53 -701 0
-54 53 0
-54 701 0
55 -702 -703 0
-55 702 0
-55 703 0
56 -8 -7 0
-56 8 0
-56 7 0
57 -56 -704 0
-57 56 0
-57 704 0
58 -705 -55 0
-58 705 0
-58 55 0
59 -10 -706 0
-59 10 0
-59 706 0
60 -59 -11 0
-60 59 0
-60 11 0
61 -707 -58 0
-61 707 0
-61 58 0
62 -5 -1 0
-62 5 0
-62 1 0
63 -62 -708 0
-63 62 0
-63 708 0
64 -709 -61 0
-64 709 0
-64 61 0
65 -710 -13 0
-65 710 0
-65 13 0
66 -65 -711 0
-66 65 0
-66 711 0
67 -712 -64 0
-67 712 0
-67 64 0
68 -17 -16 0
-68 17 0
-68 16 0
69 -68 -18 0
-69 68 0
-69 18 0
70 -713 -67 0
-70 713 0
-70 67 0
71 -714 -19 0
-71 714 0
-71 19 0
72 -71 -9 0
-72 71 0
-72 9 0
73 -715 -70 0
-73 715 0
-73 70 0
74 -21 -1 0
-74 21 0
-74 1 0
75 -74 -716 0
-75 74 0
-75 716 0
76 -717 -73 0
-76 717 0
-76 73 0
77 -718 -714 0
-77 718 0
-77 714 0
78 -77 -3 0
-78 77 0
-78 3 0
79 -719 -76 0
-79 719 0
-79 76 0
80 -23 -19 0
-80 23 0
-80 19 0
81 -80 -720 0
-81 80 0
-81 720 0
82 -721 -79 0
-82 721 0
-82 79 0
83 -7 -1 0
-83 7 0
-83 1 0
84 -83 -25 0
-84 83 0
-84 25 0
85 -722 -82 0
-85 722 0
-85 82 0
86 -27 -26 0
-86 27 0
-86 26 0
87 -86 -9 0
-87 86 0
-87 9 0
88 -723 -85 0
-88 723 0
-88 85 0
89 -11 -699 0
-89 11 0
-89 699 0
90 -89 -28 0
-90 89 0
-90 28 0
91 -724 -88 0
-91 724 0
-91 88 0
92 -725 -18 0
-92 725 0
-92 18 0
93 -92 -30 0
-93 92 0
-93 30 0
94 -726 -91 0
-94 726 0
-94 91 0
95 -727 -16 0
-95 727 0
-95 16 0
96 -95 -15 0
-96 95 0
-96 15 0
97 -728 -94 0
-97 728 0
-97 94 0
98 -13 -729 0
-98 13 0
-98 729 0
99 -98 -6 0
-99 98 0
-99 6 0
100 -730 -97 0
-100 730 0
-100 97 0
101 -710 -4 0
-101 710 0
-101 4 0
102 -101 -32 0
-102 101 0
-102 32 0
103 -731 -100 0
-103 731 0
-103 100 0
104 -33 -727 0
-104 33 0
-104 727 0
105 -104 -732 0
-105 104 0
-105 732 0
106 -733 -103 0
-106 733 0
-106 103 0
107 -734 -1 0
-107 734 0
-107 1 0
108 -107 -9 0
-108 107 0
-108 9 0
109 -735 -106 0
-109 735 0
-109 106 0
110 -23 -21 0
-110 23 0
-110 21 0
111 -110 -736 0
-111 110 0
-111 736 0
112 -737 -109 0
-112 737 0
-112 109 0
113 -36 -738 0
-113 36 0
-113 738 0
114 -113 -718 0
-114 113 0
-114 718 0
115 -739 -112 0
-115 739 0
-115 112 0
116 -740 -710 0
-116 740 0
-116 710 0
117 -116 -38 0
-117 116 0
-117 38 0
118 -741 -115 0
-118 741 0
-118 115 0
119 -701 -742 0
-119 701 0
-119 742 0
120 -119 -736 0
-120 119 0
-120 736 0
121 -743 -118 0
-121 743 0
-121 118 0
122 -744 -6 0
-122 744 0
-122 6 0
123 -122 -736 0
-123 122 0
-123 736 0
124 -745 -121 0
-124 745 0
-124 121 0
125 -746 -747 0
-125 746 0
-125 747 0
126 -125 -744 0
-126 125 0
-126 744 0
127 -748 -124 0
-127 748 0
-127 124 0
128 -749 -750 0
-128 749 0
-128 750 0
129 -128 -711 0
-129 128 0
-129 711 0
130 -751 -127 0
-130 751 0
-130 127 0
131 -26 -716 0
-131 26 0
-131 716 0
132 -131 -752 0
-132 131 0
-132 752 0
133 -753 -130 0
-133 753 0
-133 130 0
134 -22 -711 0
-134 22 0
-134 711 0
135 -134 -704 0
-135 134 0
-135 704 0
136 -754 -133 0
-136 754 0
-136 133 0
137 -33 -5 0
-137 33 0
-137 5 0
138 -137 -734 0
-138 137 0
-138 734 0
139 -755 -136 0
-139 755 0
-139 136 0
140 -756 -12 0
-140 756 0
-140 12 0
141 -140 -25 0
-141 140 0
-141 25 0
142 -757 -139 0
-142 757 0
-142 139 0
143 -33 -4 0
-143 33 0
-143 4 0
144 -143 -15 0
-144 143 0
-144 15 0
145 -758 -142 0
-145 758 0
-145 142 0
146 -714 -13 0
-146 714 0
-146 13 0
147 -146 -729 0
-147 146 0
-147 729 0
148 -759 -145 0
-148 759 0
-148 145 0
149 -760 -19 0
-149 760 0
-149 19 0
150 -149 -23 0
-150 149 0
-150 23 0
151 -761 -148 0
-151 761 0
-151 148 0
152 -762 -716 0
-152 762 0
-152 716 0
153 -152 -718 0
-153 152 0
-153 718 0
154 -763 -151 0
-154 763 0
-154 151 0
155 -41 -738 0
-155 41 0
-155 738 0
156 -155 -43 0
-156 155 0
-156 43 0
157 -764 -154 0
-157 764 0
-157 154 0
158 -738 -762 0
-158 738 0
-158 762 0
159 -158 -765 0
-159 158 0
-159 765 0
160 -766 -157 0
-160 766 0
-160 157 0
161 -749 -30 0
-161 749 0
-161 30 0
162 -161 -734 0
-162 161 0
-162 734 0
163 -767 -160 0
-163 767 0
-163 160 0
164 -749 -729 0
-164 749 0
-164 729 0
165 -164 -718 0
-165 164 0
-165 718 0
166 -768 -163 0
-166 768 0
-166 163 0
167 -17 -6 0
-167 17 0
-167 6 0
168 -167 -769 0
-168 167 0
-168 769 0
169 -770 -166 0
-169 770 0
-169 166 0
170 -771 -41 0
-170 771 0
-170 41 0
171 -170 -752 0
-171 170 0
-171 752 0
172 -772 -169 0
-172 772 0
-172 169 0
173 -23 -750 0
-173 23 0
-173 750 0
174 -173 -25 0
-174 173 0
-174 25 0
175 -773 -172 0
-175 773 0
-175 172 0
176 -42 -746 0
-176 42 0
-176 746 0
177 -176 -47 0
-177 176 0
-177 47 0
178 -774 -175 0
-178 774 0
-178 175 0
179 -37 -34 0
-179 37 0
-179 34 0
180 -179 -701 0
-180 179 0
-180 701 0
181 -775 -178 0
-181 775 0
-181 178 0
182 -776 -777 0
-182 776 0
-182 777 0
183 -182 -45 0
-183 182 0
-183 45 0
184 -778 -181 0
-184 778 0
-184 181 0
185 -40 -17 0
-185 40 0
-185 17 0
186 -185 -779 0
-186 185 0
-186 779 0
187 -780 -184 0
-187 780 0
-187 184 0
188 -16 -698 0
-188 16 0
-188 698 0
189 -188 -44 0
-189 188 0
-189 44 0
190 -781 -187 0
-190 781 0
-190 187 0
191 -38 -7 0
-191 38 0
-191 7 0
192 -191 -48 0
-192 191 0
-192 48 0
193 -782 -190 0
-193 782 0
-193 190 0
194 -710 -747 0
-194 710 0
-194 747 0
195 -194 -776 0
-195 194 0
-195 776 0
196 -783 -193 0
-196 783 0
-196 193 0
197 -727 -19 0
-197 727 0
-197 19 0
198 -197 -736 0
-198 197 0
-198 736 0
199 -784 -196 0
-199 784 0
-199 196 0
200 -785 -698 0
-200 785 0
-200 698 0
201 -200 -45 0
-201 200 0
-201 45 0
202 -786 -199 0
-202 786 0
-202 199 0
203 -785 -9 0
-203 785 0
-203 9 0
204 -203 -720 0
-204 203 0
-204 720 0
205 -787 -202 0
-205 787 0
-205 202 0
206 -706 -701 0
-206 706 0
-206 701 0
207 -206 -3 0
-207 206 0
-207 3 0
208 -788 -205 0
-208 788 0
-208 205 0
209 -33 -2 0
-209 33 0
-209 2 0
210 -209 -29 0
-210 209 0
-210 29 0
211 -789 -208 0
-211 789 0
-211 208 0
212 -31 -7 0
-212 31 0
-212 7 0
213 -212 -734 0
-213 212 0
-213 734 0
214 -790 -211 0
-214 790 0
-214 211 0
215 -791 -20 0
-215 791 0
-215 20 0
216 -215 -720 0
-216 215 0
-216 720 0
217 -792 -214 0
-217 792 0
-217 214 0
218 -708 -742 0
-218 708 0
-218 742 0
219 -218 -704 0
-219 218 0
-219 704 0
220 -793 -217 0
-220 793 0
-220 217 0
221 -49 -19 0
-221 49 0
-221 19 0
222 -221 -32 0
-222 221 0
-222 32 0
223 -794 -220 0
-223 794 0
-223 220 0
224 -738 -718 0
-224 738 0
-224 718 0
225 -224 -45 0
-225 224 0
-225 45 0
226 -795 -223 0
-226 795 0
-226 223 0
227 -796 -7 0
-227 796 0
-227 7 0
228 -227 -769 0
-228 227 0
-228 769 0
229 -797 -226 0
-229 797 0
-229 226 0
230 -744 -708 0
-230 744 0
-230 708 0
231 -230 -798 0
-231 230 0
-231 798 0
232 -799 -229 0
-232 799 0
-232 229 0
233 -746 -716 0
-233 746 0
-233 716 0
234 -233 -41 0
-234 233 0
-234 41 0
235 -800 -232 0
-235 800 0
-235 232 0
236 -749 -738 0
-236 749 0
-236 738 0
237 -236 -27 0
-237 236 0
-237 27 0
238 -801 -235 0
-238 801 0
-238 235 0
239 -5 -742 0
-239 5 0
-239 742 0
240 -239 -738 0
-240 239 0
-240 738 0
241 -802 -238 0
-241 802 0
-241 238 0
242 -47 -710 0
-242 47 0
-242 710 0
243 -242 -738 0
-243 242 0
-243 738 0
244 -803 -241 0
-244 803 0
-244 241 0
245 -41 -37 0
-245 41 0
-245 37 0
246 -245 -732 0
-246 245 0
-246 732 0
247 -804 -244 0
-247 804 0
-247 244 0
248 -21 -7 0
-248 21 0
-248 7 0
249 -248 -752 0
-249 248 0
-249 752 0
250 -805 -247 0
-250 805 0
-250 247 0
251 -40 -18 0
-251 40 0
-251 18 0
252 -251 -785 0
-252 251 0
-252 785 0
253 -806 -250 0
-253 806 0
-253 250 0
254 -39 -13 0
-254 39 0
-254 13 0
255 -254 -725 0
-255 254 0
-255 725 0
256 -807 -253 0
-256 807 0
-256 253 0
257 -29 -710 0
-257 29 0
-257 710 0
258 -257 -720 0
-258 257 0
-258 720 0
259 -808 -256 0
-259 808 0
-259 256 0
260 -749 -13 0
-260 749 0
-260 13 0
261 -260 -34 0
-261 260 0
-261 34 0
262 -809 -259 0
-262 809 0
-262 259 0
263 -810 -747 0
-263 810 0
-263 747 0
264 -263 -48 0
-264 263 0
-264 48 0
265 -811 -262 0
-265 811 0
-265 262 0
266 -738 -710 0
-266 738 0
-266 710 0
267 -266 -9 0
-267 266 0
-267 9 0
268 -812 -265 0
-268 812 0
-268 265 0
269 -8 -698 0
-269 8 0
-269 698 0
270 -269 -38 0
-270 269 0
-270 38 0
271 -813 -268 0
-271 813 0
-271 268 0
272 -12 -2 0
-272 12 0
-272 2 0
273 -272 -699 0
-273 272 0
-273 699 0
274 -814 -271 0
-274 814 0
-274 271 0
275 -796 -810 0
-275 796 0
-275 810 0
276 -275 -11 0
-276 275 0
-276 11 0
277 -815 -274 0
-277 815 0
-277 274 0
278 -38 -14 0
-278 38 0
-278 14 0
279 -278 -28 0
-279 278 0
-279 28 0
280 -816 -277 0
-280 816 0
-280 277 0
281 -791 -777 0
-281 791 0
-281 777 0
282 -281 -701 0
-282 281 0
-282 701 0
283 -817 -280 0
-283 817 0
-283 280 0
284 -47 -716 0
-284 47 0
-284 716 0
285 -284 -36 0
-285 284 0
-285 36 0
286 -818 -283 0
-286 818 0
-286 283 0
287 -37 -5 0
-287 37 0
-287 5 0
288 -287 -819 0
-288 287 0
-288 819 0
289 -820 -286 0
-289 820 0
-289 286 0
290 -760 -40 0
-290 760 0
-290 40 0
291 -290 -31 0
-291 290 0
-291 31 0
292 -821 -289 0
-292 821 0
-292 289 0
293 -4 -747 0
-293 4 0
-293 747 0
294 -293 -762 0
-294 293 0
-294 762 0
295 -822 -292 0
-295 822 0
-295 292 0
296 -40 -12 0
-296 40 0
-296 12 0
297 -296 -736 0
-297 296 0
-297 736 0
298 -823 -295 0
-298 823 0
-298 295 0
299 -824 -727 0
-299 824 0
-299 727 0
300 -299 -24 0
-300 299 0
-300 24 0
301 -825 -298 0
-301 825 0
-301 298 0
302 -826 -22 0
-302 826 0
-302 22 0
303 -302 -732 0
-303 302 0
-303 732 0
304 -827 -301 0
-304 827 0
-304 301 0
305 -7 -700 0
-305 7 0
-305 700 0
306 -305 -828 0
-306 305 0
-306 828 0
307 -829 -304 0
-307 829 0
-307 304 0
308 -36 -711 0
-308 36 0
-308 711 0
309 -308 -9 0
-309 308 0
-309 9 0
310 -830 -307 0
-310 830 0
-310 307 0
311 -50 -828 0
-311 50 0
-311 828 0
312 -311 -15 0
-312 311 0
-312 15 0
313 -831 -310 0
-313 831 0
-313 310 0
314 -791 -14 0
-314 791 0
-314 14 0
315 -314 -738 0
-315 314 0
-315 738 0
316 -832 -313 0
-316 832 0
-316 313 0
317 -13 -1 0
-317 13 0
-317 1 0
318 -317 -34 0
-318 317 0
-318 34 0
319 -833 -316 0
-319 833 0
-319 316 0
320 -3 -2 0
-320 3 0
-320 2 0
321 -320 -45 0
-321 320 0
-321 45 0
322 -834 -319 0
-322 834 0
-322 319 0
323 -26 -708 0
-323 26 0
-323 708 0
324 -323 -819 0
-324 323 0
-324 819 0
325 -835 -322 0
-325 835 0
-325 322 0
326 -17 -8 0
-326 17 0
-326 8 0
327 -326 -734 0
-327 326 0
-327 734 0
328 -836 -325 0
-328 836 0
-328 325 0
329 -8 -837 0
-329 8 0
-329 837 0
330 -329 -734 0
-330 329 0
-330 734 0
331 -838 -328 0
-331 838 0
-331 328 0
332 -771 -5 0
-332 771 0
-332 5 0
333 -332 -27 0
-333 332 0
-333 27 0
334 -839 -331 0
-334 839 0
-334 331 0
335 -765 -21 0
-335 765 0
-335 21 0
336 -335 -711 0
-336 335 0
-336 711 0
337 -840 -334 0
-337 840 0
-337 334 0
338 -22 -747 0
-338 22 0
-338 747 0
339 -338 -28 0
-339 338 0
-339 28 0
340 -841 -337 0
-340 841 0
-340 337 0
341 -41 -2 0
-341 41 0
-341 2 0
342 -341 -725 0
-342 341 0
-342 725 0
343 -842 -340 0
-343 842 0
-343 340 0
344 -18 -708 0
-344 18 0
-344 708 0
345 -344 -734 0
-345 344 0
-345 734 0
346 -843 -343 0
-346 843 0
-346 343 0
347 -776 -17 0
-347 776 0
-347 17 0
348 -347 -48 0
-348 347 0
-348 48 0
349 -844 -346 0
-349 844 0
-349 346 0
350 -37 -729 0
-350 37 0
-350 729 0
351 -350 -43 0
-351 350 0
-351 43 0
352 -845 -349 0
-352 845 0
-352 349 0
353 -826 -18 0
-353 826 0
-353 18 0
354 -353 -49 0
-354 353 0
-354 49 0
355 -846 -352 0
-355 846 0
-355 352 0
356 -42 -711 0
-356 42 0
-356 711 0
357 -356 -48 0
-357 356 0
-357 48 0
358 -847 -355 0
-358 847 0
-358 355 0
359 -16 -4 0
-359 16 0
-359 4 0
360 -359 -798 0
-360 359 0
-360 798 0
361 -848 -358 0
-361 848 0
-361 358 0
362 -824 -15 0
-362 824 0
-362 15 0
363 -362 -22 0
-363 362 0
-363 22 0
364 -849 -361 0
-364 849 0
-364 361 0
365 -7 -5 0
-365 7 0
-365 5 0
366 -365 -716 0
-366 365 0
-366 716 0
367 -850 -364 0
-367 850 0
-367 364 0
368 -746 -718 0
-368 746 0
-368 718 0
369 -368 -48 0
-369 368 0
-369 48 0
370 -851 -367 0
-370 851 0
-370 367 0
371 -727 -17 0
-371 727 0
-371 17 0
372 -371 -798 0
-372 371 0
-372 798 0
373 -852 -370 0
-373 852 0
-373 370 0
374 -824 -8 0
-374 824 0
-374 8 0
375 -374 -746 0
-375 374 0
-375 746 0
376 -853 -373 0
-376 853 0
-376 373 0
377 -19 -810 0
-377 19 0
-377 810 0
378 -377 -729 0
-378 377 0
-378 729 0
379 -854 -376 0
-379 854 0
-379 376 0
380 -725 -1 0
-380 725 0
-380 1 0
381 -380 -765 0
-381 380 0
-381 765 0
382 -855 -379 0
-382 855 0
-382 379 0
383 -26 -810 0
-383 26 0
-383 810 0
384 -383 -798 0
-384 383 0
-384 798 0
385 -856 -382 0
-385 856 0
-385 382 0
386 -837 -742 0
-386 837 0
-386 742 0
387 -386 -47 0
-387 386 0
-387 47 0
388 -857 -385 0
-388 857 0
-388 385 0
389 -26 -1 0
-389 26 0
-389 1 0
390 -389 -32 0
-390 389 0
-390 32 0
391 -858 -388 0
-391 858 0
-391 388 0
392 -50 -760 0
-392 50 0
-392 760 0
393 -392 -38 0
-393 392 0
-393 38 0
394 -859 -391 0
-394 859 0
-394 391 0
395 -860 -837 0
-395 860 0
-395 837 0
396 -395 -31 0
-396 395 0
-396 31 0
397 -861 -394 0
-397 861 0
-397 394 0
398 -791 -746 0
-398 791 0
-398 746 0
399 -398 -711 0
-399 398 0
-399 711 0
400 -862 -397 0
-400 862 0
-400 397 0
401 -40 -26 0
-401 40 0
-401 26 0
402 -401 -752 0
-402 401 0
-402 752 0
403 -863 -400 0
-403 863 0
-403 400 0
404 -706 -5 0
-404 706 0
-404 5 0
405 -404 -828 0
-405 404 0
-405 828 0
406 -864 -403 0
-406 864 0
-406 403 0
407 -796 -10 0
-407 796 0
-407 10 0
408 -407 -3 0
-408 407 0
-408 3 0
409 -865 -406 0
-409 865 0
-409 406 0
410 -37 -7 0
-410 37 0
-410 7 0
411 -410 -26 0
-411 410 0
-411 26 0
412 -866 -409 0
-412 866 0
-412 409 0
413 -777 -698 0
-413 777 0
-413 698 0
414 -413 -9 0
-414 413 0
-414 9 0
415 -867 -412 0
-415 867 0
-415 412 0
416 -750 -2 0
-416 750 0
-416 2 0
417 -416 -3 0
-417 416 0
-417 3 0
418 -868 -415 0
-418 868 0
-418 415 0
419 -46 -1 0
-419 46 0
-419 1 0
420 -419 -43 0
-420 419 0
-420 43 0
421 -869 -418 0
-421 869 0
-421 418 0
422 -738 -26 0
-422 738 0
-422 26 0
423 -422 -9 0
-423 422 0
-423 9 0
424 -870 -421 0
-424 870 0
-424 421 0
425 -41 -16 0
-425 41 0
-425 16 0
426 -425 -828 0
-426 425 0
-426 828 0
427 -871 -424 0
-427 871 0
-427 424 0
428 -36 -762 0
-428 36 0
-428 762 0
429 -428 -826 0
-429 428 0
-429 826 0
430 -872 -427 0
-430 872 0
-430 427 0
431 -14 -837 0
-431 14 0
-431 837 0
432 -431 -699 0
-432 431 0
-432 699 0
433 -873 -430 0
-433 873 0
-433 430 0
434 -744 -7 0
-434 744 0
-434 7 0
435 -434 -45 0
-435 434 0
-435 45 0
436 -874 -433 0
-436 874 0
-436 433 0
437 -750 -4 0
-437 750 0
-437 4 0
438 -437 -10 0
-438 437 0
-438 10 0
439 -875 -436 0
-439 875 0
-439 436 0
440 -27 -23 0
-440 27 0
-440 23 0
441 -440 -32 0
-441 440 0
-441 32 0
442 -876 -439 0
-442 876 0
-442 439 0
443 -710 -837 0
-443 710 0
-443 837 0
444 -443 -716 0
-444 443 0
-444 716 0
445 -877 -442 0
-445 877 0
-445 442 0
446 -317 -798 0
-446 317 0
-446 798 0
447 -878 -445 0
-447 878 0
-447 445 0
448 -47 -828 0
-448 47 0
-448 828 0
449 -448 -35 0
-449 448 0
-449 35 0
450 -879 -447 0
-450 879 0
-450 447 0
451 -11 -747 0
-451 11 0
-451 747 0
452 -451 -732 0
-452 451 0
-452 732 0
453 -880 -450 0
-453 880 0
-453 450 0
454 -410 -718 0
-454 410 0
-454 718 0
455 -881 -453 0
-455 881 0
-455 453 0
456 -50 -708 0
-456 50 0
-456 708 0
457 -456 -736 0
-457 456 0
-457 736 0
458 -882 -455 0
-458 882 0
-458 455 0
459 -47 -20 0
-459 47 0
-459 20 0
460 -459 -738 0
-460 459 0
-460 738 0
461 -883 -458 0
-461 883 0
-461 458 0
462 -708 -700 0
-462 708 0
-462 700 0
463 -462 -35 0
-463 462 0
-463 35 0
464 -884 -461 0
-464 884 0
-464 461 0
465 -23 -777 0
-465 23 0
-465 777 0
466 -465 -762 0
-466 465 0
-466 762 0
467 -885 -464 0
-467 885 0
-467 464 0
468 -771 -742 0
-468 771 0
-468 742 0
469 -468 -740 0
-469 468 0
-469 740 0
470 -886 -467 0
-470 886 0
-470 467 0
471 -37 -714 0
-471 37 0
-471 714 0
472 -471 -776 0
-472 471 0
-472 776 0
473 -887 -470 0
-473 887 0
-473 470 0
474 -33 -750 0
-474 33 0
-474 750 0
475 -474 -736 0
-475 474 0
-475 736 0
476 -888 -473 0
-476 888 0
-476 473 0
477 -791 -742 0
-477 791 0
-477 742 0
478 -477 -49 0
-478 477 0
-478 49 0
479 -889 -476 0
-479 889 0
-479 476 0
480 -46 -860 0
-480 46 0
-480 860 0
481 -480 -762 0
-481 480 0
-481 762 0
482 -890 -479 0
-482 890 0
-482 479 0
483 -39 -725 0
-483 39 0
-483 725 0
484 -483 -819 0
-484 483 0
-484 819 0
485 -891 -482 0
-485 891 0
-485 482 0
486 -23 -8 0
-486 23 0
-486 8 0
487 -486 -798 0
-487 486 0
-487 798 0
488 -892 -485 0
-488 892 0
-488 485 0
489 -40 -14 0
-489 40 0
-489 14 0
490 -489 -28 0
-490 489 0
-490 28 0
491 -893 -488 0
-491 893 0
-491 488 0
492 -749 -17 0
-492 749 0
-492 17 0
493 -492 -36 0
-493 492 0
-493 36 0
494 -894 -491 0
-494 894 0
-494 491 0
495 -779 -34 0
-495 779 0
-495 34 0
496 -495 -28 0
-496 495 0
-496 28 0
497 -895 -494 0
-497 895 0
-497 494 0
498 -796 -12 0
-498 796 0
-498 12 0
499 -498 -35 0
-499 498 0
-499 35 0
500 -896 -497 0
-500 896 0
-500 497 0
501 -756 -700 0
-501 756 0
-501 700 0
502 -501 -14 0
-502 501 0
-502 14 0
503 -897 -500 0
-503 897 0
-503 500 0
504 -50 -24 0
-504 50 0
-504 24 0
505 -504 -769 0
-505 504 0
-505 769 0
506 -898 -503 0
-506 898 0
-506 503 0
507 -13 -7 0
-507 13 0
-507 7 0
508 -507 -819 0
-508 507 0
-508 819 0
509 -899 -506 0
-509 899 0
-509 506 0
510 -776 -716 0
-510 776 0
-510 716 0
511 -510 -9 0
-511 510 0
-511 9 0
512 -900 -509 0
-512 900 0
-512 509 0
513 -43 -740 0
-513 43 0
-513 740 0
514 -513 -3 0
-514 513 0
-514 3 0
515 -901 -512 0
-515 901 0
-515 512 0
516 -40 -15 0
-516 40 0
-516 15 0
517 -516 -732 0
-517 516 0
-517 732 0
518 -902 -515 0
-518 902 0
-518 515 0
519 -14 -704 0
-519 14 0
-519 704 0
520 -519 -28 0
-520 519 0
-520 28 0
521 -903 -518 0
-521 903 0
-521 518 0
522 -47 -36 0
-522 47 0
-522 36 0
523 -522 -701 0
-523 522 0
-523 701 0
524 -904 -521 0
-524 904 0
-524 521 0
525 -10 -747 0
-525 10 0
-525 747 0
526 -525 -39 0
-526 525 0
-526 39 0
527 -905 -524 0
-527 905 0
-527 524 0
528 -744 -777 0
-528 744 0
-528 777 0
529 -528 -24 0
-529 528 0
-529 24 0
530 -906 -527 0
-530 906 0
-530 527 0
531 -41 -736 0
-531 41 0
-531 736 0
532 -531 -45 0
-532 531 0
-532 45 0
533 -907 -530 0
-533 907 0
-533 530 0
534 -727 -701 0
-534 727 0
-534 701 0
535 -534 -785 0
-535 534 0
-535 785 0
536 -908 -533 0
-536 908 0
-536 533 0
537 -752 -699 0
-537 752 0
-537 699 0
538 -537 -9 0
-538 537 0
-538 9 0
539 -909 -536 0
-539 909 0
-539 536 0
540 -910 -777 0
-540 910 0
-540 777 0
541 -540 -3 0
-541 540 0
-541 3 0
542 -911 -539 0
-542 911 0
-542 539 0
543 -31 -1 0
-543 31 0
-543 1 0
544 -543 -732 0
-544 543 0
-544 732 0
545 -912 -542 0
-545 912 0
-545 542 0
546 -740 -7 0
-546 740 0
-546 7 0
547 -546 -6 0
-547 546 0
-547 6 0
548 -913 -545 0
-548 913 0
-548 545 0
549 -185 -752 0
-549 185 0
-549 752 0
550 -914 -548 0
-550 914 0
-550 548 0
551 -74 -46 0
-551 74 0
-551 46 0
552 -915 -550 0
-552 915 0
-552 550 0
553 -13 -742 0
-553 13 0
-553 742 0
554 -553 -716 0
-554 553 0
-554 716 0
555 -916 -552 0
-555 916 0
-555 552 0
556 -760 -749 0
-556 760 0
-556 749 0
557 -556 -11 0
-557 556 0
-557 11 0
558 -917 -555 0
-558 917 0
-558 555 0
559 -31 -918 0
-559 31 0
-559 918 0
560 -559 -779 0
-560 559 0
-560 779 0
561 -919 -558 0
-561 919 0
-561 558 0
562 -42 -749 0
-562 42 0
-562 749 0
563 -562 -28 0
-563 562 0
-563 28 0
564 -920 -561 0
-564 920 0
-564 561 0
565 -837 -698 0
-565 837 0
-565 698 0
566 -565 -716 0
-566 565 0
-566 716 0
567 -921 -564 0
-567 921 0
-567 564 0
568 -716 -1 0
-568 716 0
-568 1 0
569 -568 -41 0
-569 568 0
-569 41 0
570 -922 -567 0
-570 922 0
-570 567 0
571 -765 -734 0
-571 765 0
-571 734 0
572 -571 -3 0
-572 571 0
-572 3 0
573 -923 -570 0
-573 923 0
-573 570 0
574 -746 -734 0
-574 746 0
-574 734 0
575 -574 -769 0
-575 574 0
-575 769 0
576 -924 -573 0
-576 924 0
-576 573 0
577 -910 -810 0
-577 910 0
-577 810 0
578 -577 -25 0
-578 577 0
-578 25 0
579 -925 -576 0
-579 925 0
-579 576 0
580 -742 -698 0
-580 742 0
-580 698 0
581 -580 -776 0
-581 580 0
-581 776 0
582 -926 -579 0
-582 926 0
-582 579 0
583 -31 -747 0
-583 31 0
-583 747 0
584 -583 -11 0
-584 583 0
-584 11 0
585 -927 -582 0
-585 927 0
-585 582 0
586 -44 -23 0
-586 44 0
-586 23 0
587 -586 -45 0
-587 586 0
-587 45 0
588 -928 -585 0
-588 928 0
-588 585 0
589 -413 -910 0
-589 413 0
-589 910 0
590 -929 -588 0
-590 929 0
-590 588 0
591 -21 -19 0
-591 21 0
-591 19 0
592 -591 -738 0
-592 591 0
-592 738 0
593 -930 -590 0
-593 930 0
-593 590 0
594 -824 -6 0
-594 824 0
-594 6 0
595 -594 -699 0
-595 594 0
-595 699 0
596 -931 -593 0
-596 931 0
-596 593 0
597 -760 -4 0
-597 760 0
-597 4 0
598 -597 -44 0
-598 597 0
-598 44 0
599 -932 -596 0
-599 932 0
-599 596 0
600 -50 -7 0
-600 50 0
-600 7 0
601 -600 -22 0
-601 600 0
-601 22 0
602 -933 -599 0
-602 933 0
-602 599 0
603 -39 -21 0
-603 39 0
-603 21 0
604 -603 -738 0
-604 603 0
-604 738 0
605 -934 -602 0
-605 934 0
-605 602 0
606 -50 -42 0
-606 50 0
-606 42 0
607 -606 -26 0
-607 606 0
-607 26 0
608 -935 -605 0
-608 935 0
-608 605 0
609 -25 -716 0
-609 25 0
-609 716 0
610 -609 -36 0
-610 609 0
-610 36 0
611 -936 -608 0
-611 936 0
-611 608 0
612 -752 -8 0
-612 752 0
-612 8 0
613 -612 -779 0
-613 612 0
-613 779 0
614 -937 -611 0
-614 937 0
-614 611 0
615 -810 -8 0
-615 810 0
-615 8 0
616 -615 -48 0
-616 615 0
-616 48 0
617 -938 -614 0
-617 938 0
-617 614 0
618 -771 -698 0
-618 771 0
-618 698 0
619 -618 -791 0
-619 618 0
-619 791 0
620 -939 -617 0
-620 939 0
-620 617 0
621 -738 -22 0
-621 738 0
-621 22 0
622 -621 -9 0
-622 621 0
-622 9 0
623 -940 -620 0
-623 940 0
-623 620 0
624 -798 -826 0
-624 798 0
-624 826 0
625 -624 -769 0
-625 624 0
-625 769 0
626 -941 -623 0
-626 941 0
-626 623 0
627 -824 -860 0
-627 824 0
-627 860 0
628 -627 -6 0
-628 627 0
-628 6 0
629 -942 -626 0
-629 942 0
-629 626 0
630 -39 -12 0
-630 39 0
-630 12 0
631 -630 -725 0
-631 630 0
-631 725 0
632 -943 -629 0
-632 943 0
-632 629 0
633 -796 -711 0
-633 796 0
-633 711 0
634 -633 -718 0
-634 633 0
-634 718 0
635 -944 -632 0
-635 944 0
-635 632 0
636 -760 -7 0
-636 760 0
-636 7 0
637 -636 -762 0
-637 636 0
-637 762 0
638 -945 -635 0
-638 945 0
-638 635 0
639 -44 -17 0
-639 44 0
-639 17 0
640 -639 -711 0
-640 639 0
-640 711 0
641 -946 -638 0
-641 946 0
-641 638 0
642 -714 -710 0
-642 714 0
-642 710 0
643 -642 -27 0
-643 642 0
-643 27 0
644 -947 -641 0
-644 947 0
-644 641 0
645 -765 -20 0
-645 765 0
-645 20 0
646 -645 -27 0
-646 645 0
-646 27 0
647 -948 -644 0
-647 948 0
-647 644 0
648 -36 -706 0
-648 36 0
-648 706 0
649 -648 -43 0
-649 648 0
-649 43 0
650 -949 -647 0
-650 949 0
-650 647 0
651 -35 -777 0
-651 35 0
-651 777 0
652 -651 -32 0
-652 651 0
-652 32 0
653 -950 -650 0
-653 950 0
-653 650 0
654 -749 -706 0
-654 749 0
-654 706 0
655 -654 -43 0
-655 654 0
-655 43 0
656 -951 -653 0
-656 951 0
-656 653 0
657 -740 -756 0
-657 740 0
-657 756 0
658 -657 -27 0
-658 657 0
-658 27 0
659 -952 -656 0
-659 952 0
-659 656 0
660 -760 -12 0
-660 760 0
-660 12 0
661 -660 -44 0
-661 660 0
-661 44 0
662 -953 -659 0
-662 953 0
-662 659 0
663 -734 -10 0
-663 734 0
-663 10 0
664 -663 -720 0
-664 663 0
-664 720 0
665 -954 -662 0
-665 954 0
-665 662 0
666 -918 -7 0
-666 918 0
-666 7 0
667 -666 -15 0
-667 666 0
-667 15 0
668 -955 -665 0
-668 955 0
-668 665 0
669 -44 -12 0
-669 44 0
-669 12 0
670 -669 -32 0
-670 669 0
-670 32 0
671 -956 -668 0
-671 956 0
-671 668 0
672 -266 -779 0
-672 266 0
-672 779 0
673 -957 -671 0
-673 957 0
-673 671 0
674 -41 -27 0
-674 41 0
-674 27 0
675 -674 -779 0
-675 674 0
-675 779 0
676 -958 -673 0
-676 958 0
-676 673 0
677 -23 -18 0
-677 23 0
-677 18 0
678 -677 -796 0
-678 677 0
-678 796 0
679 -959 -676 0
-679 959 0
-679 676 0
680 -771 -747 0
-680 771 0
-680 747 0
681 -680 -32 0
-681 680 0
-681 32 0
682 -960 -679 0
-682 960 0
-682 679 0
683 -50 -777 0
-683 50 0
-683 777 0
684 -683 -776 0
-684 683 0
-684 776 0
685 -961 -682 0
-685 961 0
-685 682 0
686 -40 -39 0
-686 40 0
-686 39 0
687 -686 -32 0
-687 686 0
-687 32 0
688 -962 -685 0
-688 962 0
-688 685 0
689 -791 -2 0
-689 791 0
-689 2 0
690 -689 -720 0
-690 689 0
-690 720 0
691 -963 -688 0
-691 963 0
-691 688 0
692 -47 -910 0
-692 47 0
-692 910 0
693 -692 -738 0
-693 692 0
-693 738 0
694 -964 -691 0
-694 964 0
-694 691 0
695 -918 -5 0
-695 918 0
-695 5 0
696 -695 -46 0
-696 695 0
-696 46 0
697 -965 -694 0
-697 965 0
-697 694 0
-698 -1 0
698 1 0
-699 -3 0
699 3 0
-700 -5 0
700 5 0
-701 -6 0
701 6 0
-702 -54 0
702 54 0
-703 -52 0
703 52 0
-704 -9 0
704 9 0
-705 -57 0
705 57 0
-706 -8 0
706 8 0
-707 -60 0
707 60 0
-708 -12 0
708 12 0
-709 -63 0
709 63 0
-710 -14 0
710 14 0
-711 -15 0
711 15 0
-712 -66 0
712 66 0
-713 -69 0
713 69 0
-714 -20 0
714 20 0
-715 -72 0
715 72 0
-716 -18 0
716 18 0
-717 -75 0
717 75 0
-718 -22 0
718 22 0
-719 -78 0
719 78 0
-720 -24 0
720 24 0
-721 -81 0
721 81 0
-722 -84 0
722 84 0
-723 -87 0
723 87 0
-724 -90 0
724 90 0
-725 -29 0
725 29 0
-726 -93 0
726 93 0
-727 -31 0
727 31 0
-728 -96 0
728 96 0
-729 -10 0
729 10 0
-730 -99 0
730 99 0
-731 -102 0
731 102 0
-732 -28 0
732 28 0
-733 -105 0
733 105 0
-734 -34 0
734 34 0
-735 -108 0
735 108 0
-736 -35 0
736 35 0
-737 -111 0
737 111 0
-738 -33 0
738 33 0
-739 -114 0
739 114 0
-740 -37 0
740 37 0
-741 -117 0
741 117 0
-742 -4 0
742 4 0
-743 -120 0
743 120 0
-744 -39 0
744 39 0
-745 -123 0
745 123 0
-746 -40 0
746 40 0
-747 -2 0
747 2 0
-748 -126 0
748 126 0
-749 -41 0
749 41 0
-750 -16 0
750 16 0
-751 -129 0
751 129 0
-752 -27 0
752 27 0
-753 -132 0
753 132 0
-754 -135 0
754 135 0
-755 -138 0
755 138 0
-756 -21 0
756 21 0
-757 -141 0
757 141 0
-758 -144 0
758 144 0
-759 -147 0
759 147 0
-760 -42 0
760 42 0
-761 -150 0
761 150 0
-762 -25 0
762 25 0
-763 -153 0
763 153 0
-764 -156 0
764 156 0
-765 -44 0
765 44 0
-766 -159 0
766 159 0
-767 -162 0
767 162 0
-768 -165 0
768 165 0
-769 -45 0
769 45 0
-770 -168 0
770 168 0
-771 -46 0
771 46 0
-772 -171 0
772 171 0
-773 -174 0
773 174 0
-774 -177 0
774 177 0
-775 -180 0
775 180 0
-776 -36 0
776 36 0
-777 -19 0
777 19 0
-778 -183 0
778 183 0
-779 -48 0
779 48 0
-780 -186 0
780 186 0
-781 -189 0
781 189 0
-782 -192 0
782 192 0
-783 -195 0
783 195 0
-784 -198 0
784 198 0
-785 -32 0
785 32 0
-786 -201 0
786 201 0
-787 -204 0
787 204 0
-788 -207 0
788 207 0
-789 -210 0
789 210 0
-790 -213 0
790 213 0
-791 -47 0
791 47 0
-792 -216 0
792 216 0
-793 -219 0
793 219 0
-794 -222 0
794 222 0
-795 -225 0
795 225 0
-796 -38 0
796 38 0
-797 -228 0
797 228 0
-798 -49 0
798 49 0
-799 -231 0
799 231 0
-800 -234 0
800 234 0
-801 -237 0
801 237 0
-802 -240 0
802 240 0
-803 -243 0
803 243 0
-804 -246 0
804 246 0
-805 -249 0
805 249 0
-806 -252 0
806 252 0
-807 -255 0
807 255 0
-808 -258 0
808 258 0
-809 -261 0
809 261 0
-810 -13 0
810 13 0
-811 -264 0
811 264 0
-812 -267 0
812 267 0
-813 -270 0
813 270 0
-814 -273 0
814 273 0
-815 -276 0
815 276 0
-816 -279 0
816 279 0
-817 -282 0
817 282 0
-818 -285 0
818 285 0
-819 -11 0
819 11 0
-820 -288 0
820 288 0
-821 -291 0
821 291 0
-822 -294 0
822 294 0
-823 -297 0
823 297 0
-824 -50 0
824 50 0
-825 -300 0
825 300 0
-826 -30 0
826 30 0
-827 -303 0
827 303 0
-828 -43 0
828 43 0
-829 -306 0
829 306 0
-830 -309 0
830 309 0
-831 -312 0
831 312 0
-832 -315 0
832 315 0
-833 -318 0
833 318 0
-834 -321 0
834 321 0
-835 -324 0
835 324 0
-836 -327 0
836 327 0
-837 -7 0
837 7 0
-838 -330 0
838 330 0
-839 -333 0
839 333 0
-840 -336 0
840 336 0
-841 -339 0
841 339 0
-842 -342 0
842 342 0
-843 -345 0
843 345 0
-844 -348 0
844 348 0
-845 -351 0
845 351 0
-846 -354 0
846 354 0
-847 -357 0
847 357 0
-848 -360 0
848 360 0
-849 -363 0
849 363 0
-850 -366 0
850 366 0
-851 -369 0
851 369 0
-852 -372 0
852 372 0
-853 -375 0
853 375 0
-854 -378 0
854 378 0
-855 -381 0
855 381 0
-856 -384 0
856 384 0
-857 -387 0
857 387 0
-858 -390 0
858 390 0
-859 -393 0
859 393 0
-860 -17 0
860 17 0
-861 -396 0
861 396 0
-862 -399 0
862 399 0
-863 -402 0
863 402 0
-864 -405 0
864 405 0
-865 -408 0
865 408 0
-866 -411 0
866 411 0
-867 -414 0
867 414 0
-868 -417 0
868 417 0
-869 -420 0
869 420 0
-870 -423 0
870 423 0
-871 -426 0
871 426 0
-872 -429 0
872 429 0
-873 -432 0
873 432 0
-874 -435 0
874 435 0
-875 -438 0
875 438 0
-876 -441 0
876 441 0
-877 -444 0
877 444 0
-878 -446 0
878 446 0
-879 -449 0
879 449 0
-880 -452 0
880 452 0
-881 -454 0
881 454 0
-882 -457 0
882 457 0
-883 -460 0
883 460 0
-884 -463 0
884 463 0
-885 -466 0
885 466 0
-886 -469 0
886 469 0
-887 -472 0
887 472 0
-888 -475 0
888 475 0
-889 -478 0
889 478 0
-890 -481 0
890 481 0
-891 -484 0
891 484 0
-892 -487 0
892 487 0
-893 -490 0
893 490 0
-894 -493 0
894 493 0
-895 -496 0
895 496 0
-896 -499 0
896 499 0
-897 -502 0
897 502 0
-898 -505 0
898 505 0
-899 -508 0
899 508 0
-900 -511 0
900 511 0
-901 -514 0
901 514 0
-902 -517 0
902 517 0
-903 -520 0
903 520 0
-904 -523 0
904 523 0
-905 -526 0
905 526 0
-906 -529 0
906 529 0
-907 -532 0
907 532 0
-908 -535 0
908 535 0
-909 -538 0
909 538 0
-910 -26 0
910 26 0
-911 -541 0
911 541 0
-912 -544 0
912 544 0
-913 -547 0
913 547 0
-914 -549 0
914 549 0
-915 -551 0
915 551 0
-916 -554 0
916 554 0
-917 -557 0
917 557 0
-918 -23 0
918 23 0
-919 -560 0
919 560 0
-920 -563 0
920 563 0
-921 -566 0
921 566 0
-922 -569 0
922 569 0
-923 -572 0
923 572 0
-924 -575 0
924 575 0
-925 -578 0
925 578 0
-926 -581 0
926 581 0
-927 -584 0
927 584 0
-928 -587 0
928 587 0
-929 -589 0
929 589 0
-930 -592 0
930 592 0
-931 -595 0
931 595 0
-932 -598 0
932 598 0
-933 -601 0
933 601 0
-934 -604 0
934 604 0
-935 -607 0
935 607 0
-936 -610 0
936 610 0
-937 -613 0
937 613 0
-938 -616 0
938 616 0
-939 -619 0
939 619 0
-940 -622 0
940 622 0
-941 -625 0
941 625 0
-942 -628 0
942 628 0
-943 -631 0
943 631 0
-944 -634 0
944 634 0
-945 -637 0
945 637 0
-946 -640 0
946 640 0
-947 -643 0
947 643 0
-948 -646 0
948 646 0
-949 -649 0
949 649 0
-950 -652 0
950 652 0
-951 -655 0
951 655 0
-952 -658 0
952 658 0
-953 -661 0
953 661 0
-954 -664 0
954 664 0
-955 -667 0
955 667 0
-956 -670 0
956 670 0
-957 -672 0
957 672 0
-958 -675 0
958 675 0
-959 -678 0
959 678 0
-960 -681 0
960 681 0
-961 -684 0
961 684 0
-962 -687 0
962 687 0
-963 -690 0
963 690 0
-964 -693 0
964 693 0
-965 -696 0
965 696 0
697 0
